&CONTROL
calculation='bands'
restart_mode='from_scratch'
outdir='./tmp'
pseudo_dir='./'
prefix='siO2'
etot_conv_thr=1.0D-10
wf_collect=.true.
/

&SYSTEM
ibrav=0
nat=54
ntyp=2
ecutwfc=90.0
ecutrho=360.0
nspin=1
nbnd=30
occupations='smearing'
degauss=0.01D0
smearing='methfessel-paxton'
/

&ELECTRONS
conv_thr=1.0e-8
mixing_beta=0.3
/

ATOMIC_SPECIES
Si 28.085 Si.UPF
O  16.00  O.UPF

CELL_PARAMETERS angstrom
   13.0342720500     0.0000000000     0.0000000000
   -6.5171360250    11.2880107151     0.0000000000
    0.0000000000     0.0000000000     7.5968293100

ATOMIC_POSITIONS crystal
Si	0.3333336900	0.9048223800	0.7028272750
Si	0.0951776200	0.4285113100	0.7028272750
Si	0.5714886900	0.6666663100	0.7028272750
Si	0.3333336900	0.9048223800	0.2971727250
Si	0.0951776200	0.4285113100	0.2971727250
Si	0.5714886900	0.6666663100	0.2971727250
Si	0.0951776200	0.6666663100	0.7028272750
Si	0.5714886900	0.9048223800	0.7028272750
Si	0.3333336900	0.4285113100	0.7028272750
Si	0.0951776200	0.6666663100	0.2971727250
Si	0.5714886900	0.9048223800	0.2971727250
Si	0.3333336900	0.4285113100	0.2971727250
Si	0.4244282400	0.0901038000	0.0000000000
Si	0.9098962000	0.3343244400	0.0000000000
Si	0.6656755600	0.5755717600	0.0000000000
Si	0.9098962000	0.5755717600	0.0000000000
Si	0.6656755600	0.0901038000	0.0000000000
Si	0.4244282400	0.3343244400	0.0000000000
O	0.4347382400	0.8694764800	0.7324931250
O	0.1305235200	0.5652617600	0.7324931250
O	0.4347382400	0.5652617600	0.7324931250
O	0.4347382400	0.8694764800	0.2675068750
O	0.1305235200	0.5652617600	0.2675068750
O	0.4347382400	0.5652617600	0.2675068750
O	0.2072148400	0.7927851600	0.7540883150
O	0.2072148400	0.4144296800	0.7540883150
O	0.5855703200	0.7927851600	0.7540883150
O	0.2072148400	0.7927851600	0.2459116850
O	0.2072148400	0.4144296800	0.2459116850
O	0.5855703200	0.7927851600	0.2459116850
O	0.3585348400	0.0152206700	0.8257858550
O	0.9847793300	0.3433141700	0.8257858550
O	0.6566858300	0.6414651600	0.8257858550
O	0.3585348400	0.0152206700	0.1742141450
O	0.9847793300	0.3433141700	0.1742141450
O	0.6566858300	0.6414651600	0.1742141450
O	0.9847793300	0.6414651600	0.8257858550
O	0.6566858300	0.0152206700	0.8257858550
O	0.3585348400	0.3433141700	0.8257858550
O	0.9847793300	0.6414651600	0.1742141450
O	0.6566858300	0.0152206700	0.1742141450
O	0.3585348400	0.3433141700	0.1742141450
O	0.3331229600	0.9415671900	0.5000000000
O	0.0584328100	0.3915557700	0.5000000000
O	0.6084442300	0.6668770400	0.5000000000
O	0.0584328100	0.6668770400	0.5000000000
O	0.6084442300	0.9415671900	0.5000000000
O	0.3331229600	0.3915557700	0.5000000000
O	0.5609290000	0.1218580000	0.0000000000
O	0.8781420000	0.4390710000	0.0000000000
O	0.5609290000	0.4390710000	0.0000000000
O	0.4187202100	0.2093601050	0.0000000000
O	0.7906398950	0.2093601050	0.0000000000
O	0.7906398950	0.5812797900	0.0000000000


K_POINTS crystal
200
    0.0000000000     0.0000000000     0.0000000000 1
    0.0500000000     0.0000000000     0.0000000000 1
    0.1000000000     0.0000000000     0.0000000000 1
    0.1500000000     0.0000000000     0.0000000000 1
    0.2000000000     0.0000000000     0.0000000000 1
    0.2500000000     0.0000000000     0.0000000000 1
    0.3000000000     0.0000000000     0.0000000000 1
    0.3500000000     0.0000000000     0.0000000000 1
    0.4000000000     0.0000000000     0.0000000000 1
    0.4500000000     0.0000000000     0.0000000000 1
    0.5000000000     0.0000000000     0.0000000000 1
    0.4666666667     0.0666666667     0.0000000000 1
    0.4333333333     0.1333333333     0.0000000000 1
    0.4000000000     0.2000000000     0.0000000000 1
    0.3666666667     0.2666666667     0.0000000000 1
    0.3333333333     0.3333333333     0.0000000000 1
    0.3030303030     0.3030303030     0.0000000000 1
    0.2727272727     0.2727272727     0.0000000000 1
    0.2424242424     0.2424242424     0.0000000000 1
    0.2121212121     0.2121212121     0.0000000000 1
    0.1818181818     0.1818181818     0.0000000000 1
    0.1515151515     0.1515151515     0.0000000000 1
    0.1212121212     0.1212121212     0.0000000000 1
    0.0909090909     0.0909090909     0.0000000000 1
    0.0606060606     0.0606060606     0.0000000000 1
    0.0303030303     0.0303030303     0.0000000000 1
    0.0000000000     0.0000000000     0.0000000000 1
    0.0000000000     0.0000000000     0.0333333333 1
    0.0000000000     0.0000000000     0.0666666667 1
    0.0000000000     0.0000000000     0.1000000000 1
    0.0000000000     0.0000000000     0.1333333333 1
    0.0000000000     0.0000000000     0.1666666667 1
    0.0000000000     0.0000000000     0.2000000000 1
    0.0000000000     0.0000000000     0.2333333333 1
    0.0000000000     0.0000000000     0.2666666667 1
    0.0000000000     0.0000000000     0.3000000000 1
    0.0000000000     0.0000000000     0.3333333333 1
    0.0000000000     0.0000000000     0.3666666667 1
    0.0000000000     0.0000000000     0.4000000000 1
    0.0000000000     0.0000000000     0.4333333333 1
    0.0000000000     0.0000000000     0.4666666667 1
    0.0000000000     0.0000000000     0.5000000000 1
    0.0500000000     0.0000000000     0.5000000000 1
    0.1000000000     0.0000000000     0.5000000000 1
    0.1500000000     0.0000000000     0.5000000000 1
    0.2000000000     0.0000000000     0.5000000000 1
    0.2500000000     0.0000000000     0.5000000000 1
    0.3000000000     0.0000000000     0.5000000000 1
    0.3500000000     0.0000000000     0.5000000000 1
    0.4000000000     0.0000000000     0.5000000000 1
    0.4500000000     0.0000000000     0.5000000000 1
    0.5000000000     0.0000000000     0.5000000000 1
    0.4666666667     0.0666666667     0.5000000000 1
    0.4333333333     0.1333333333     0.5000000000 1
    0.4000000000     0.2000000000     0.5000000000 1
    0.3666666667     0.2666666667     0.5000000000 1
    0.3333333333     0.3333333333     0.5000000000 1
    0.3030303030     0.3030303030     0.5000000000 1
    0.2727272727     0.2727272727     0.5000000000 1
    0.2424242424     0.2424242424     0.5000000000 1
    0.2121212121     0.2121212121     0.5000000000 1
    0.1818181818     0.1818181818     0.5000000000 1
    0.1515151515     0.1515151515     0.5000000000 1
    0.1212121212     0.1212121212     0.5000000000 1
    0.0909090909     0.0909090909     0.5000000000 1
    0.0606060606     0.0606060606     0.5000000000 1
    0.0303030303     0.0303030303     0.5000000000 1
    0.0000000000     0.0000000000     0.5000000000 1
    0.5000000000     0.0000000000     0.5000000000 1
    0.5000000000     0.0000000000     0.4666666667 1
    0.5000000000     0.0000000000     0.4333333333 1
    0.5000000000     0.0000000000     0.4000000000 1
    0.5000000000     0.0000000000     0.3666666667 1
    0.5000000000     0.0000000000     0.3333333333 1
    0.5000000000     0.0000000000     0.3000000000 1
    0.5000000000     0.0000000000     0.2666666667 1
    0.5000000000     0.0000000000     0.2333333333 1
    0.5000000000     0.0000000000     0.2000000000 1
    0.5000000000     0.0000000000     0.1666666667 1
    0.5000000000     0.0000000000     0.1333333333 1
    0.5000000000     0.0000000000     0.1000000000 1
    0.5000000000     0.0000000000     0.0666666667 1
    0.5000000000     0.0000000000     0.0333333333 1
    0.5000000000     0.0000000000     0.0000000000 1
    0.3333333333     0.3333333333     0.5000000000 1
    0.3333333333     0.3333333333     0.4666666667 1
    0.3333333333     0.3333333333     0.4333333333 1
    0.3333333333     0.3333333333     0.4000000000 1
    0.3333333333     0.3333333333     0.3666666667 1
    0.3333333333     0.3333333333     0.3333333333 1
    0.3333333333     0.3333333333     0.3000000000 1
    0.3333333333     0.3333333333     0.2666666667 1
    0.3333333333     0.3333333333     0.2333333333 1
    0.3333333333     0.3333333333     0.2000000000 1
    0.3333333333     0.3333333333     0.1666666667 1
    0.3333333333     0.3333333333     0.1333333333 1
    0.3333333333     0.3333333333     0.1000000000 1
    0.3333333333     0.3333333333     0.0666666667 1
    0.3333333333     0.3333333333     0.0333333333 1
    0.3333333333     0.3333333333     0.0000000000 1
    0.0000000000     0.0000000000     0.0000000000 1
   -0.0500000000     0.0000000000     0.0000000000 1
   -0.1000000000     0.0000000000     0.0000000000 1
   -0.1500000000     0.0000000000     0.0000000000 1
   -0.2000000000     0.0000000000     0.0000000000 1
   -0.2500000000     0.0000000000     0.0000000000 1
   -0.3000000000     0.0000000000     0.0000000000 1
   -0.3500000000     0.0000000000     0.0000000000 1
   -0.4000000000     0.0000000000     0.0000000000 1
   -0.4500000000     0.0000000000     0.0000000000 1
   -0.5000000000     0.0000000000     0.0000000000 1
   -0.4666666667    -0.0666666667     0.0000000000 1
   -0.4333333333    -0.1333333333     0.0000000000 1
   -0.4000000000    -0.2000000000     0.0000000000 1
   -0.3666666667    -0.2666666667     0.0000000000 1
   -0.3333333333    -0.3333333333     0.0000000000 1
   -0.3030303030    -0.3030303030     0.0000000000 1
   -0.2727272727    -0.2727272727     0.0000000000 1
   -0.2424242424    -0.2424242424     0.0000000000 1
   -0.2121212121    -0.2121212121     0.0000000000 1
   -0.1818181818    -0.1818181818     0.0000000000 1
   -0.1515151515    -0.1515151515     0.0000000000 1
   -0.1212121212    -0.1212121212     0.0000000000 1
   -0.0909090909    -0.0909090909     0.0000000000 1
   -0.0606060606    -0.0606060606     0.0000000000 1
   -0.0303030303    -0.0303030303     0.0000000000 1
    0.0000000000     0.0000000000     0.0000000000 1
    0.0000000000     0.0000000000    -0.0333333333 1
    0.0000000000     0.0000000000    -0.0666666667 1
    0.0000000000     0.0000000000    -0.1000000000 1
    0.0000000000     0.0000000000    -0.1333333333 1
    0.0000000000     0.0000000000    -0.1666666667 1
    0.0000000000     0.0000000000    -0.2000000000 1
    0.0000000000     0.0000000000    -0.2333333333 1
    0.0000000000     0.0000000000    -0.2666666667 1
    0.0000000000     0.0000000000    -0.3000000000 1
    0.0000000000     0.0000000000    -0.3333333333 1
    0.0000000000     0.0000000000    -0.3666666667 1
    0.0000000000     0.0000000000    -0.4000000000 1
    0.0000000000     0.0000000000    -0.4333333333 1
    0.0000000000     0.0000000000    -0.4666666667 1
    0.0000000000     0.0000000000    -0.5000000000 1
   -0.0500000000     0.0000000000    -0.5000000000 1
   -0.1000000000     0.0000000000    -0.5000000000 1
   -0.1500000000     0.0000000000    -0.5000000000 1
   -0.2000000000     0.0000000000    -0.5000000000 1
   -0.2500000000     0.0000000000    -0.5000000000 1
   -0.3000000000     0.0000000000    -0.5000000000 1
   -0.3500000000     0.0000000000    -0.5000000000 1
   -0.4000000000     0.0000000000    -0.5000000000 1
   -0.4500000000     0.0000000000    -0.5000000000 1
   -0.5000000000     0.0000000000    -0.5000000000 1
   -0.4666666667    -0.0666666667    -0.5000000000 1
   -0.4333333333    -0.1333333333    -0.5000000000 1
   -0.4000000000    -0.2000000000    -0.5000000000 1
   -0.3666666667    -0.2666666667    -0.5000000000 1
   -0.3333333333    -0.3333333333    -0.5000000000 1
   -0.3030303030    -0.3030303030    -0.5000000000 1
   -0.2727272727    -0.2727272727    -0.5000000000 1
   -0.2424242424    -0.2424242424    -0.5000000000 1
   -0.2121212121    -0.2121212121    -0.5000000000 1
   -0.1818181818    -0.1818181818    -0.5000000000 1
   -0.1515151515    -0.1515151515    -0.5000000000 1
   -0.1212121212    -0.1212121212    -0.5000000000 1
   -0.0909090909    -0.0909090909    -0.5000000000 1
   -0.0606060606    -0.0606060606    -0.5000000000 1
   -0.0303030303    -0.0303030303    -0.5000000000 1
    0.0000000000     0.0000000000    -0.5000000000 1
   -0.5000000000     0.0000000000    -0.5000000000 1
   -0.5000000000     0.0000000000    -0.4666666667 1
   -0.5000000000     0.0000000000    -0.4333333333 1
   -0.5000000000     0.0000000000    -0.4000000000 1
   -0.5000000000     0.0000000000    -0.3666666667 1
   -0.5000000000     0.0000000000    -0.3333333333 1
   -0.5000000000     0.0000000000    -0.3000000000 1
   -0.5000000000     0.0000000000    -0.2666666667 1
   -0.5000000000     0.0000000000    -0.2333333333 1
   -0.5000000000     0.0000000000    -0.2000000000 1
   -0.5000000000     0.0000000000    -0.1666666667 1
   -0.5000000000     0.0000000000    -0.1333333333 1
   -0.5000000000     0.0000000000    -0.1000000000 1
   -0.5000000000     0.0000000000    -0.0666666667 1
   -0.5000000000     0.0000000000    -0.0333333333 1
   -0.5000000000     0.0000000000     0.0000000000 1
   -0.3333333333    -0.3333333333    -0.5000000000 1
   -0.3333333333    -0.3333333333    -0.4666666667 1
   -0.3333333333    -0.3333333333    -0.4333333333 1
   -0.3333333333    -0.3333333333    -0.4000000000 1
   -0.3333333333    -0.3333333333    -0.3666666667 1
   -0.3333333333    -0.3333333333    -0.3333333333 1
   -0.3333333333    -0.3333333333    -0.3000000000 1
   -0.3333333333    -0.3333333333    -0.2666666667 1
   -0.3333333333    -0.3333333333    -0.2333333333 1
   -0.3333333333    -0.3333333333    -0.2000000000 1
   -0.3333333333    -0.3333333333    -0.1666666667 1
   -0.3333333333    -0.3333333333    -0.1333333333 1
   -0.3333333333    -0.3333333333    -0.1000000000 1
   -0.3333333333    -0.3333333333    -0.0666666667 1
   -0.3333333333    -0.3333333333    -0.0333333333 1
   -0.3333333333    -0.3333333333     0.0000000000 1